100 500 10 200 10 100
62 56
32 74
57 45
30 108
99 62
93 43
78 91
73 118
84 11
42 32
47 107
18 62
39 109
79 52
72 187
33 51
17 117
45 154
14 74
92 147
86 161
24 82
45 30
13 12
57 135
66 101
28 61
28 164
16 19
43 142
56 129
28 81
75 120
81 41
45 87
98 132
73 158
47 132
62 47
52 52
65 182
65 34
81 139
39 46
97 25
83 165
92 183
70 32
27 93
98 129
39 64
99 60
69 108
36 43
12 160
55 139
49 72
50 196
20 195
34 171
68 40
76 175
70 24
78 136
12 104
65 120
32 137
97 192
63 27
38 33
65 175
49 140
74 168
87 69
86 188
16 193
43 17
66 62
81 17
16 173
72 74
41 91
89 106
48 89
23 172
32 100
77 139
45 14
24 17
87 90
59 168
69 65
38 71
58 50
31 127
18 33
36 150
86 45
40 39
82 169
